#######################################
### Exact MIP solver for the HHCRSP ###
#######################################
-- Instance file: new-instances/HHCRSP_200_40_52_1.0_C_C.txt
-- Max threads: 4
-- Time limit: 999999 seconds
-- Use initial solution: No
Trivial flow violations prevented generating 352462 variables.
Version identifier: 20.1.0.0 | 2020-11-10 | 9bedb6d68
CPXPARAM_Threads                                 4
CPXPARAM_TimeLimit                               999999
Parallel mode: deterministic, using up to 4 threads for concurrent optimization:
 * Starting dual Simplex on 1 thread...
 * Starting Barrier on 3 threads...
Tried aggregator 1 time.
LP Presolve eliminated 19932 rows and 4172 columns.
Reduced LP has 346046 rows, 329785 columns, and 5706718 nonzeros.
Presolve time = 13.07 sec. (1343.15 ticks)
Symmetry aggregator did 486072 additional substitutions.

Iteration log . . .
Iteration:     1   Dual objective     =             0.000000
Iteration:   972   Dual objective     =           218.666667

Dual crossover.
  Dual:  Fixing 946 variables.
      945 DMoves:  Infeasibility  6.33937349e-13  Objective  2.21666667e+02
        0 DMoves:  Infeasibility  3.23963080e-13  Objective  2.21666667e+02
  Dual:  Pushed 36, exchanged 910.
  Primal:  Fixing 416 variables.
      415 PMoves:  Infeasibility  1.11022302e-16  Objective  2.21666667e+02
        0 PMoves:  Infeasibility  8.32667268e-16  Objective  2.21666667e+02
  Primal:  Pushed 327, exchanged 89.

Dual simplex solved model.


Solution status from MIP model:
-- Processing time: 20.605 sec.
-- Memory used: 411.512 MB
-- Best bound: inf
-- Obj value: 221.667
-- Gap: inf%
-- Total distance: 665
-- Total tardiness: 0
-- Largest tardiness: 0
